(set-option :auto-config false)
(set-option :produce-unsat-cores false)
(set-option :smt.mbqi.max_iterations 10000000)
(set-option :smt.relevancy 0)
(declare-fun c2 () Bool)
(define-fun e3 ((c0 (_ BitVec 64)) (c1 (_ BitVec 64))) Bool (not c2))
(declare-fun c4 () (_ BitVec 64))
(define-fun e5 ((c0 (_ BitVec 64)) (c1 (_ BitVec 64))) (_ BitVec 64) (_ bv512 64))
(define-fun e6 ((c0 (_ BitVec 64)) (c1 (_ BitVec 64))) Bool (bvult c4 (e5 c0 c1)))
(declare-fun c7 () (_ BitVec 64))
(define-fun e8 ((c0 (_ BitVec 64)) (c1 (_ BitVec 64))) (_ BitVec 64) (_ bv1024 64))
(define-fun e9 ((c0 (_ BitVec 64)) (c1 (_ BitVec 64))) Bool (bvult c7 (e8 c0 c1)))
(define-fun e10 ((c0 (_ BitVec 64)) (c1 (_ BitVec 64))) (_ BitVec 64) (_ bv3 64))
(declare-fun c11 ((_ BitVec 64)) (_ BitVec 64))
(define-fun e12 ((c0 (_ BitVec 64)) (c1 (_ BitVec 64))) (_ BitVec 64) (c11 c7))
(define-fun e13 ((c0 (_ BitVec 64)) (c1 (_ BitVec 64))) Bool (= (e10 c0 c1) (e12 c0 c1)))
(define-fun e14 ((c0 (_ BitVec 64)) (c1 (_ BitVec 64))) Bool (and (e9 c0 c1) (e13 c0 c1)))
(define-fun e15 ((c0 (_ BitVec 64)) (c1 (_ BitVec 64))) (_ BitVec 64) (_ bv0 64))
(declare-fun c16 ((_ BitVec 64) (_ BitVec 64)) (_ BitVec 64))
(define-fun e17 ((c0 (_ BitVec 64)) (c1 (_ BitVec 64))) (_ BitVec 64) (c16 c7 c4))
(define-fun e18 ((c0 (_ BitVec 64)) (c1 (_ BitVec 64))) Bool (= (e15 c0 c1) (e17 c0 c1)))
(declare-fun c19 () (_ BitVec 64))
(define-fun e20 ((c0 (_ BitVec 64)) (c1 (_ BitVec 64))) Bool (bvult c19 (e8 c0 c1)))
(define-fun e21 ((c0 (_ BitVec 64)) (c1 (_ BitVec 64))) (_ BitVec 64) (c11 c19))
(define-fun e22 ((c0 (_ BitVec 64)) (c1 (_ BitVec 64))) Bool (= (e15 c0 c1) (e21 c0 c1)))
(define-fun e23 ((c0 (_ BitVec 64)) (c1 (_ BitVec 64))) Bool (and (e20 c0 c1) (e22 c0 c1)))
(declare-fun c24 ((_ BitVec 64)) (_ BitVec 64))
(define-fun e25 ((c0 (_ BitVec 64)) (c1 (_ BitVec 64))) (_ BitVec 64) (c24 c7))
(define-fun e26 ((c0 (_ BitVec 64)) (c1 (_ BitVec 64))) (_ BitVec 64) (_ bv2 64))
(define-fun e27 ((c0 (_ BitVec 64)) (c1 (_ BitVec 64))) (_ BitVec 64) (c16 (e25 c0 c1) (e26 c0 c1)))
(define-fun e28 ((c0 (_ BitVec 64)) (c1 (_ BitVec 64))) Bool (= (e15 c0 c1) (e27 c0 c1)))
(define-fun e29 ((c0 (_ BitVec 64)) (c1 (_ BitVec 64))) Bool (and (e3 c0 c1) (e6 c0 c1) (e14 c0 c1) (e18 c0 c1) (e23 c0 c1) (e28 c0 c1)))
(define-fun e30 ((c0 (_ BitVec 64)) (c1 (_ BitVec 64))) Bool (= c19 c0))
(define-fun e31 ((c0 (_ BitVec 64)) (c1 (_ BitVec 64))) (_ BitVec 64) (c24 c0))
(define-fun e32 ((c0 (_ BitVec 64)) (c1 (_ BitVec 64))) (_ BitVec 64) (ite (e30 c0 c1) (e25 c0 c1) (e31 c0 c1)))
(define-fun e33 ((c0 (_ BitVec 64)) (c1 (_ BitVec 64))) Bool (not (e6 c0 c1)))
(define-fun e34 ((c0 (_ BitVec 64)) (c1 (_ BitVec 64))) Bool (not (e14 c0 c1)))
(define-fun e35 ((c0 (_ BitVec 64)) (c1 (_ BitVec 64))) Bool (not (e18 c0 c1)))
(define-fun e36 ((c0 (_ BitVec 64)) (c1 (_ BitVec 64))) Bool (not (e20 c0 c1)))
(define-fun e37 ((c0 (_ BitVec 64)) (c1 (_ BitVec 64))) Bool (not (e23 c0 c1)))
(define-fun e38 ((c0 (_ BitVec 64)) (c1 (_ BitVec 64))) Bool (not (e28 c0 c1)))
(define-fun e39 ((c0 (_ BitVec 64)) (c1 (_ BitVec 64))) Bool (and (e23 c0 c1) (e38 c0 c1)))
(define-fun e40 ((c0 (_ BitVec 64)) (c1 (_ BitVec 64))) Bool (or (e37 c0 c1) (e39 c0 c1)))
(define-fun e41 ((c0 (_ BitVec 64)) (c1 (_ BitVec 64))) Bool (and (e20 c0 c1) (e40 c0 c1)))
(define-fun e42 ((c0 (_ BitVec 64)) (c1 (_ BitVec 64))) Bool (or (e36 c0 c1) (e41 c0 c1)))
(define-fun e43 ((c0 (_ BitVec 64)) (c1 (_ BitVec 64))) Bool (and (e18 c0 c1) (e42 c0 c1)))
(define-fun e44 ((c0 (_ BitVec 64)) (c1 (_ BitVec 64))) Bool (or (e35 c0 c1) (e43 c0 c1)))
(define-fun e45 ((c0 (_ BitVec 64)) (c1 (_ BitVec 64))) Bool (and (e14 c0 c1) (e44 c0 c1)))
(define-fun e46 ((c0 (_ BitVec 64)) (c1 (_ BitVec 64))) Bool (or (e34 c0 c1) (e45 c0 c1)))
(define-fun e47 ((c0 (_ BitVec 64)) (c1 (_ BitVec 64))) Bool (and (e6 c0 c1) (e46 c0 c1)))
(define-fun e48 ((c0 (_ BitVec 64)) (c1 (_ BitVec 64))) Bool (or (e33 c0 c1) (e47 c0 c1)))
(define-fun e49 ((c0 (_ BitVec 64)) (c1 (_ BitVec 64))) Bool (and (e3 c0 c1) (e48 c0 c1)))
(define-fun e50 ((c0 (_ BitVec 64)) (c1 (_ BitVec 64))) Bool (or c2 (e49 c0 c1)))
(define-fun e51 ((c0 (_ BitVec 64)) (c1 (_ BitVec 64))) (_ BitVec 64) (bvor (ite (e29 c0 c1) (e32 c0 c1) (_ bv0 64)) (ite (e50 c0 c1) (e31 c0 c1) (_ bv0 64))))
(define-fun e52 ((c0 (_ BitVec 64)) (c1 (_ BitVec 64))) Bool (= c7 c0))
(define-fun e53 ((c0 (_ BitVec 64)) (c1 (_ BitVec 64))) Bool (= c4 c1))
(define-fun e54 ((c0 (_ BitVec 64)) (c1 (_ BitVec 64))) Bool (and (e52 c0 c1) (e53 c0 c1)))
(define-fun e55 ((c0 (_ BitVec 64)) (c1 (_ BitVec 64))) Bool (bvult c1 (e5 c0 c1)))
(define-fun e56 ((c0 (_ BitVec 64)) (c1 (_ BitVec 64))) Bool (and (e55 c0 c1) (e30 c0 c1)))
(declare-fun c57 ((_ BitVec 64) (_ BitVec 64)) (_ BitVec 64))
(define-fun e58 ((c0 (_ BitVec 64)) (c1 (_ BitVec 64))) (_ BitVec 64) (c57 c0 c1))
(define-fun e59 ((c0 (_ BitVec 64)) (c1 (_ BitVec 64))) (_ BitVec 64) (ite (e56 c0 c1) (e15 c0 c1) (e58 c0 c1)))
(define-fun e60 ((c0 (_ BitVec 64)) (c1 (_ BitVec 64))) (_ BitVec 64) (ite (e54 c0 c1) c19 (e59 c0 c1)))
(define-fun e61 ((c0 (_ BitVec 64)) (c1 (_ BitVec 64))) (_ BitVec 64) (bvor (ite (e29 c0 c1) (e60 c0 c1) (_ bv0 64)) (ite (e50 c0 c1) (e58 c0 c1) (_ bv0 64))))
(define-fun e62 ((c0 (_ BitVec 64)) (c1 (_ BitVec 64))) Bool (= c19 (e61 c0 c1)))
(define-fun e63 ((c0 (_ BitVec 64)) (c1 (_ BitVec 64))) (_ BitVec 64) (c24 (e61 c0 c1)))
(define-fun e64 ((c0 (_ BitVec 64)) (c1 (_ BitVec 64))) (_ BitVec 64) (ite (e62 c0 c1) (e25 c0 c1) (e63 c0 c1)))
(define-fun e65 ((c0 (_ BitVec 64)) (c1 (_ BitVec 64))) (_ BitVec 64) (bvor (ite (e29 c0 c1) (e64 c0 c1) (_ bv0 64)) (ite (e50 c0 c1) (e63 c0 c1) (_ bv0 64))))
(define-fun e66 ((c0 (_ BitVec 64)) (c1 (_ BitVec 64))) Bool (= (e51 c0 c1) (e65 c0 c1)))
(define-fun e67 ((c0 (_ BitVec 64)) (c1 (_ BitVec 64))) Bool (bvult (e61 c0 c1) (e8 c0 c1)))
(define-fun e68 ((c0 (_ BitVec 64)) (c1 (_ BitVec 64))) (_ BitVec 64) (_ bv6 64))
(define-fun e69 ((c0 (_ BitVec 64)) (c1 (_ BitVec 64))) (_ BitVec 64) (_ bv4 64))
(define-fun e70 ((c0 (_ BitVec 64)) (c1 (_ BitVec 64))) (_ BitVec 64) (c11 (e61 c0 c1)))
(define-fun e71 ((c0 (_ BitVec 64)) (c1 (_ BitVec 64))) (_ BitVec 64) (ite (e62 c0 c1) (e69 c0 c1) (e70 c0 c1)))
(define-fun e72 ((c0 (_ BitVec 64)) (c1 (_ BitVec 64))) (_ BitVec 64) (bvor (ite (e29 c0 c1) (e71 c0 c1) (_ bv0 64)) (ite (e50 c0 c1) (e70 c0 c1) (_ bv0 64))))
(define-fun e73 ((c0 (_ BitVec 64)) (c1 (_ BitVec 64))) Bool (= (e68 c0 c1) (e72 c0 c1)))
(define-fun e74 ((c0 (_ BitVec 64)) (c1 (_ BitVec 64))) Bool (and (e67 c0 c1) (e73 c0 c1)))
(define-fun e75 ((c0 (_ BitVec 64)) (c1 (_ BitVec 64))) Bool (and (e66 c0 c1) (e74 c0 c1)))
(define-fun e76 ((c0 (_ BitVec 64)) (c1 (_ BitVec 64))) Bool (bvult c0 (e8 c0 c1)))
(define-fun e77 ((c0 (_ BitVec 64)) (c1 (_ BitVec 64))) Bool (bvult (e51 c0 c1) (e8 c0 c1)))
(define-fun e78 ((c0 (_ BitVec 64)) (c1 (_ BitVec 64))) (_ BitVec 64) (_ bv1 64))
(define-fun e79 ((c0 (_ BitVec 64)) (c1 (_ BitVec 64))) Bool (= c19 (e51 c0 c1)))
(define-fun e80 ((c0 (_ BitVec 64)) (c1 (_ BitVec 64))) (_ BitVec 64) (c11 (e51 c0 c1)))
(define-fun e81 ((c0 (_ BitVec 64)) (c1 (_ BitVec 64))) (_ BitVec 64) (ite (e79 c0 c1) (e69 c0 c1) (e80 c0 c1)))
(define-fun e82 ((c0 (_ BitVec 64)) (c1 (_ BitVec 64))) (_ BitVec 64) (bvor (ite (e29 c0 c1) (e81 c0 c1) (_ bv0 64)) (ite (e50 c0 c1) (e80 c0 c1) (_ bv0 64))))
(define-fun e83 ((c0 (_ BitVec 64)) (c1 (_ BitVec 64))) Bool (= (e78 c0 c1) (e82 c0 c1)))
(define-fun e84 ((c0 (_ BitVec 64)) (c1 (_ BitVec 64))) Bool (and (e77 c0 c1) (e83 c0 c1)))
(define-fun e85 ((c0 (_ BitVec 64)) (c1 (_ BitVec 64))) Bool (= (e26 c0 c1) c4))
(define-fun e86 ((c0 (_ BitVec 64)) (c1 (_ BitVec 64))) Bool (= c7 (e51 c0 c1)))
(define-fun e87 ((c0 (_ BitVec 64)) (c1 (_ BitVec 64))) Bool (and (e85 c0 c1) (e86 c0 c1)))
(define-fun e88 ((c0 (_ BitVec 64)) (c1 (_ BitVec 64))) (_ BitVec 64) (_ bv524314 64))
(define-fun e89 ((c0 (_ BitVec 64)) (c1 (_ BitVec 64))) (_ BitVec 64) (bvadd (e88 c0 c1) c19))
(define-fun e90 ((c0 (_ BitVec 64)) (c1 (_ BitVec 64))) (_ BitVec 64) (_ bv10 64))
(define-fun e91 ((c0 (_ BitVec 64)) (c1 (_ BitVec 64))) (_ BitVec 64) (bvshl (e89 c0 c1) (e90 c0 c1)))
(define-fun e92 ((c0 (_ BitVec 64)) (c1 (_ BitVec 64))) (_ BitVec 64) (bvor (e78 c0 c1) (e91 c0 c1)))
(define-fun e93 ((c0 (_ BitVec 64)) (c1 (_ BitVec 64))) (_ BitVec 64) (c16 (e51 c0 c1) (e26 c0 c1)))
(define-fun e94 ((c0 (_ BitVec 64)) (c1 (_ BitVec 64))) (_ BitVec 64) (ite (e79 c0 c1) (e15 c0 c1) (e93 c0 c1)))
(define-fun e95 ((c0 (_ BitVec 64)) (c1 (_ BitVec 64))) (_ BitVec 64) (ite (e87 c0 c1) (e92 c0 c1) (e94 c0 c1)))
(define-fun e96 ((c0 (_ BitVec 64)) (c1 (_ BitVec 64))) (_ BitVec 64) (bvor (ite (e29 c0 c1) (e95 c0 c1) (_ bv0 64)) (ite (e50 c0 c1) (e93 c0 c1) (_ bv0 64))))
(define-fun e97 ((c0 (_ BitVec 64)) (c1 (_ BitVec 64))) Bool (= (e26 c0 c1) (e96 c0 c1)))
(define-fun e98 ((c0 (_ BitVec 64)) (c1 (_ BitVec 64))) Bool (not (e97 c0 c1)))
(define-fun e99 ((c0 (_ BitVec 64)) (c1 (_ BitVec 64))) Bool (and (e76 c0 c1) (e55 c0 c1) (e84 c0 c1) (e98 c0 c1)))
(define-fun e100 ((c0 (_ BitVec 64)) (c1 (_ BitVec 64))) Bool (not (e54 c0 c1)))
(declare-fun c101 ((_ BitVec 64) (_ BitVec 64)) Bool)
(define-fun e102 ((c0 (_ BitVec 64)) (c1 (_ BitVec 64))) Bool (c101 c0 c1))
(define-fun e103 ((c0 (_ BitVec 64)) (c1 (_ BitVec 64))) Bool (not (e56 c0 c1)))
(define-fun e104 ((c0 (_ BitVec 64)) (c1 (_ BitVec 64))) Bool (and (e102 c0 c1) (e103 c0 c1)))
(define-fun e105 ((c0 (_ BitVec 64)) (c1 (_ BitVec 64))) Bool (and (e100 c0 c1) (e104 c0 c1)))
(define-fun e106 ((c0 (_ BitVec 64)) (c1 (_ BitVec 64))) Bool (or (e54 c0 c1) (e105 c0 c1)))
(define-fun e107 ((c0 (_ BitVec 64)) (c1 (_ BitVec 64))) Bool (and (e29 c0 c1) (e106 c0 c1)))
(define-fun e108 ((c0 (_ BitVec 64)) (c1 (_ BitVec 64))) Bool (and (e102 c0 c1) (e50 c0 c1)))
(define-fun e109 ((c0 (_ BitVec 64)) (c1 (_ BitVec 64))) Bool (or (e107 c0 c1) (e108 c0 c1)))
(define-fun e110 ((c0 (_ BitVec 64)) (c1 (_ BitVec 64))) (_ BitVec 64) (_ bv5 64))
(define-fun e111 ((c0 (_ BitVec 64)) (c1 (_ BitVec 64))) (_ BitVec 64) (c11 c0))
(define-fun e112 ((c0 (_ BitVec 64)) (c1 (_ BitVec 64))) (_ BitVec 64) (ite (e30 c0 c1) (e69 c0 c1) (e111 c0 c1)))
(define-fun e113 ((c0 (_ BitVec 64)) (c1 (_ BitVec 64))) (_ BitVec 64) (bvor (ite (e29 c0 c1) (e112 c0 c1) (_ bv0 64)) (ite (e50 c0 c1) (e111 c0 c1) (_ bv0 64))))
(define-fun e114 ((c0 (_ BitVec 64)) (c1 (_ BitVec 64))) Bool (= (e110 c0 c1) (e113 c0 c1)))
(define-fun e115 ((c0 (_ BitVec 64)) (c1 (_ BitVec 64))) Bool (and (e76 c0 c1) (e114 c0 c1)))
(declare-fun c116 ((_ BitVec 64) (_ BitVec 64)) Bool)
(define-fun e117 ((c0 (_ BitVec 64)) (c1 (_ BitVec 64))) Bool (c116 c0 c1))
(define-fun e118 ((c0 (_ BitVec 64)) (c1 (_ BitVec 64))) Bool (and (e117 c0 c1) (e103 c0 c1)))
(define-fun e119 ((c0 (_ BitVec 64)) (c1 (_ BitVec 64))) Bool (and (e29 c0 c1) (e118 c0 c1)))
(define-fun e120 ((c0 (_ BitVec 64)) (c1 (_ BitVec 64))) Bool (and (e117 c0 c1) (e50 c0 c1)))
(define-fun e121 ((c0 (_ BitVec 64)) (c1 (_ BitVec 64))) Bool (or (e119 c0 c1) (e120 c0 c1)))
(define-fun e122 ((c0 (_ BitVec 64)) (c1 (_ BitVec 64))) Bool (and (e99 c0 c1) (e109 c0 c1) (e115 c0 c1) (e121 c0 c1)))
(define-fun e123 ((c0 (_ BitVec 64)) (c1 (_ BitVec 64))) Bool (not (e122 c0 c1)))
(define-fun e124 ((c0 (_ BitVec 64)) (c1 (_ BitVec 64))) Bool (or (e75 c0 c1) (e123 c0 c1)))
(define-fun e125 () Bool (forall ((c0 (_ BitVec 64)) (c1 (_ BitVec 64))) (e124 c0 c1)))
(declare-fun c126 () (_ BitVec 64))
(define-fun e127 () (_ BitVec 64) (_ bv1024 64))
(define-fun e128 () Bool (bvult c126 e127))
(define-fun e129 () (_ BitVec 64) (_ bv2 64))
(define-fun e130 () (_ BitVec 64) (c11 c126))
(define-fun e131 () Bool (= e129 e130))
(define-fun e132 () Bool (and e128 e131))
(define-fun e133 () Bool (not c2))
(define-fun e134 () Bool (or e132 e133))
(define-fun e135 ((c0 (_ BitVec 64))) (_ BitVec 64) (_ bv0 64))
(define-fun e136 ((c0 (_ BitVec 64))) (_ BitVec 64) (c16 c0 (e135 c0)))
(define-fun e137 ((c0 (_ BitVec 64))) (_ BitVec 64) (_ bv1024 64))
(define-fun e138 ((c0 (_ BitVec 64))) Bool (bvult (e136 c0) (e137 c0)))
(define-fun e139 ((c0 (_ BitVec 64))) (_ BitVec 64) (_ bv3 64))
(define-fun e140 ((c0 (_ BitVec 64))) (_ BitVec 64) (c11 (e136 c0)))
(define-fun e141 ((c0 (_ BitVec 64))) Bool (= (e139 c0) (e140 c0)))
(define-fun e142 ((c0 (_ BitVec 64))) Bool (and (e138 c0) (e141 c0)))
(define-fun e143 ((c0 (_ BitVec 64))) (_ BitVec 64) (c24 (e136 c0)))
(define-fun e144 ((c0 (_ BitVec 64))) Bool (= c0 (e143 c0)))
(define-fun e145 ((c0 (_ BitVec 64))) Bool (and (e142 c0) (e144 c0)))
(define-fun e146 ((c0 (_ BitVec 64))) Bool (bvult c0 (e137 c0)))
(define-fun e147 ((c0 (_ BitVec 64))) (_ BitVec 64) (_ bv1 64))
(define-fun e148 ((c0 (_ BitVec 64))) (_ BitVec 64) (c11 c0))
(define-fun e149 ((c0 (_ BitVec 64))) Bool (= (e147 c0) (e148 c0)))
(define-fun e150 ((c0 (_ BitVec 64))) Bool (and (e146 c0) (e149 c0)))
(define-fun e151 ((c0 (_ BitVec 64))) (_ BitVec 64) (_ bv2 64))
(define-fun e152 ((c0 (_ BitVec 64))) (_ BitVec 64) (c16 c0 (e151 c0)))
(define-fun e153 ((c0 (_ BitVec 64))) Bool (= (e151 c0) (e152 c0)))
(define-fun e154 ((c0 (_ BitVec 64))) Bool (not (e153 c0)))
(define-fun e155 ((c0 (_ BitVec 64))) Bool (and (e150 c0) (e154 c0)))
(define-fun e156 ((c0 (_ BitVec 64))) Bool (not (e155 c0)))
(define-fun e157 ((c0 (_ BitVec 64))) Bool (or (e145 c0) (e156 c0)))
(define-fun e158 () Bool (forall ((c0 (_ BitVec 64))) (e157 c0)))
(define-fun e159 ((c0 (_ BitVec 64)) (c1 (_ BitVec 64))) (_ BitVec 64) (c16 c0 c1))
(define-fun e160 ((c0 (_ BitVec 64)) (c1 (_ BitVec 64))) (_ BitVec 64) (bvadd (e88 c0 c1) (e58 c0 c1)))
(define-fun e161 ((c0 (_ BitVec 64)) (c1 (_ BitVec 64))) (_ BitVec 64) (bvshl (e160 c0 c1) (e90 c0 c1)))
(define-fun e162 ((c0 (_ BitVec 64)) (c1 (_ BitVec 64))) (_ BitVec 64) (bvor (e78 c0 c1) (e161 c0 c1)))
(define-fun e163 ((c0 (_ BitVec 64)) (c1 (_ BitVec 64))) (_ BitVec 64) (ite (e102 c0 c1) (e162 c0 c1) (e15 c0 c1)))
(define-fun e164 ((c0 (_ BitVec 64)) (c1 (_ BitVec 64))) Bool (= (e159 c0 c1) (e163 c0 c1)))
(define-fun e165 ((c0 (_ BitVec 64)) (c1 (_ BitVec 64))) Bool (bvult (e31 c0 c1) (e8 c0 c1)))
(define-fun e166 ((c0 (_ BitVec 64)) (c1 (_ BitVec 64))) (_ BitVec 64) (c11 (e31 c0 c1)))
(define-fun e167 ((c0 (_ BitVec 64)) (c1 (_ BitVec 64))) Bool (= (e78 c0 c1) (e166 c0 c1)))
(define-fun e168 ((c0 (_ BitVec 64)) (c1 (_ BitVec 64))) Bool (and (e165 c0 c1) (e167 c0 c1)))
(define-fun e169 ((c0 (_ BitVec 64)) (c1 (_ BitVec 64))) (_ BitVec 64) (c16 (e31 c0 c1) (e26 c0 c1)))
(define-fun e170 ((c0 (_ BitVec 64)) (c1 (_ BitVec 64))) Bool (= (e26 c0 c1) (e169 c0 c1)))
(define-fun e171 ((c0 (_ BitVec 64)) (c1 (_ BitVec 64))) Bool (not (e170 c0 c1)))
(define-fun e172 ((c0 (_ BitVec 64)) (c1 (_ BitVec 64))) Bool (and (e76 c0 c1) (e55 c0 c1) (e168 c0 c1) (e171 c0 c1)))
(define-fun e173 ((c0 (_ BitVec 64)) (c1 (_ BitVec 64))) Bool (= (e10 c0 c1) (e111 c0 c1)))
(define-fun e174 ((c0 (_ BitVec 64)) (c1 (_ BitVec 64))) Bool (and (e76 c0 c1) (e173 c0 c1)))
(define-fun e175 ((c0 (_ BitVec 64)) (c1 (_ BitVec 64))) Bool (= (e69 c0 c1) (e111 c0 c1)))
(define-fun e176 ((c0 (_ BitVec 64)) (c1 (_ BitVec 64))) Bool (and (e76 c0 c1) (e175 c0 c1)))
(define-fun e177 ((c0 (_ BitVec 64)) (c1 (_ BitVec 64))) Bool (or (e174 c0 c1) (e176 c0 c1)))
(define-fun e178 ((c0 (_ BitVec 64)) (c1 (_ BitVec 64))) Bool (and (e172 c0 c1) (e177 c0 c1)))
(define-fun e179 ((c0 (_ BitVec 64)) (c1 (_ BitVec 64))) Bool (not (e178 c0 c1)))
(define-fun e180 ((c0 (_ BitVec 64)) (c1 (_ BitVec 64))) Bool (or (e164 c0 c1) (e179 c0 c1)))
(define-fun e181 () Bool (forall ((c0 (_ BitVec 64)) (c1 (_ BitVec 64))) (e180 c0 c1)))
(define-fun e182 ((c0 (_ BitVec 64)) (c1 (_ BitVec 64))) (_ BitVec 64) (_ bv193 64))
(define-fun e183 ((c0 (_ BitVec 64)) (c1 (_ BitVec 64))) (_ BitVec 64) (_ bv14 64))
(declare-fun c184 ((_ BitVec 64) (_ BitVec 64)) (_ BitVec 64))
(define-fun e185 ((c0 (_ BitVec 64)) (c1 (_ BitVec 64))) (_ BitVec 64) (c184 c0 c1))
(define-fun e186 ((c0 (_ BitVec 64)) (c1 (_ BitVec 64))) (_ BitVec 64) (bvand (e183 c0 c1) (e185 c0 c1)))
(define-fun e187 ((c0 (_ BitVec 64)) (c1 (_ BitVec 64))) (_ BitVec 64) (bvor (e182 c0 c1) (e186 c0 c1)))
(define-fun e188 ((c0 (_ BitVec 64)) (c1 (_ BitVec 64))) (_ BitVec 64) (bvor (e161 c0 c1) (e187 c0 c1)))
(define-fun e189 ((c0 (_ BitVec 64)) (c1 (_ BitVec 64))) (_ BitVec 64) (_ bv525824 64))
(define-fun e190 ((c0 (_ BitVec 64)) (c1 (_ BitVec 64))) (_ BitVec 64) (bvadd (e189 c0 c1) (e58 c0 c1)))
(define-fun e191 ((c0 (_ BitVec 64)) (c1 (_ BitVec 64))) (_ BitVec 64) (bvshl (e190 c0 c1) (e90 c0 c1)))
(define-fun e192 ((c0 (_ BitVec 64)) (c1 (_ BitVec 64))) (_ BitVec 64) (bvor (e187 c0 c1) (e191 c0 c1)))
(define-fun e193 ((c0 (_ BitVec 64)) (c1 (_ BitVec 64))) (_ BitVec 64) (ite (e117 c0 c1) (e188 c0 c1) (e192 c0 c1)))
(define-fun e194 ((c0 (_ BitVec 64)) (c1 (_ BitVec 64))) (_ BitVec 64) (ite (e102 c0 c1) (e193 c0 c1) (e15 c0 c1)))
(define-fun e195 ((c0 (_ BitVec 64)) (c1 (_ BitVec 64))) Bool (= (e159 c0 c1) (e194 c0 c1)))
(define-fun e196 ((c0 (_ BitVec 64)) (c1 (_ BitVec 64))) Bool (= (e110 c0 c1) (e111 c0 c1)))
(define-fun e197 ((c0 (_ BitVec 64)) (c1 (_ BitVec 64))) Bool (and (e76 c0 c1) (e196 c0 c1)))
(define-fun e198 ((c0 (_ BitVec 64)) (c1 (_ BitVec 64))) Bool (and (e172 c0 c1) (e197 c0 c1)))
(define-fun e199 ((c0 (_ BitVec 64)) (c1 (_ BitVec 64))) Bool (not (e198 c0 c1)))
(define-fun e200 ((c0 (_ BitVec 64)) (c1 (_ BitVec 64))) Bool (or (e195 c0 c1) (e199 c0 c1)))
(define-fun e201 () Bool (forall ((c0 (_ BitVec 64)) (c1 (_ BitVec 64))) (e200 c0 c1)))
(define-fun e202 ((c0 (_ BitVec 64)) (c1 (_ BitVec 64))) Bool (bvult (e58 c0 c1) (e8 c0 c1)))
(define-fun e203 ((c0 (_ BitVec 64)) (c1 (_ BitVec 64))) (_ BitVec 64) (c11 (e58 c0 c1)))
(define-fun e204 ((c0 (_ BitVec 64)) (c1 (_ BitVec 64))) Bool (= (e69 c0 c1) (e203 c0 c1)))
(define-fun e205 ((c0 (_ BitVec 64)) (c1 (_ BitVec 64))) Bool (and (e202 c0 c1) (e204 c0 c1)))
(define-fun e206 ((c0 (_ BitVec 64)) (c1 (_ BitVec 64))) (_ BitVec 64) (c24 (e58 c0 c1)))
(define-fun e207 ((c0 (_ BitVec 64)) (c1 (_ BitVec 64))) Bool (= (e31 c0 c1) (e206 c0 c1)))
(define-fun e208 ((c0 (_ BitVec 64)) (c1 (_ BitVec 64))) Bool (and (e205 c0 c1) (e207 c0 c1)))
(define-fun e209 ((c0 (_ BitVec 64)) (c1 (_ BitVec 64))) Bool (and (e172 c0 c1) (e174 c0 c1) (e102 c0 c1)))
(define-fun e210 ((c0 (_ BitVec 64)) (c1 (_ BitVec 64))) Bool (not (e209 c0 c1)))
(define-fun e211 ((c0 (_ BitVec 64)) (c1 (_ BitVec 64))) Bool (or (e208 c0 c1) (e210 c0 c1)))
(define-fun e212 () Bool (forall ((c0 (_ BitVec 64)) (c1 (_ BitVec 64))) (e211 c0 c1)))
(define-fun e213 ((c0 (_ BitVec 64)) (c1 (_ BitVec 64))) Bool (= (e110 c0 c1) (e203 c0 c1)))
(define-fun e214 ((c0 (_ BitVec 64)) (c1 (_ BitVec 64))) Bool (and (e202 c0 c1) (e213 c0 c1)))
(define-fun e215 ((c0 (_ BitVec 64)) (c1 (_ BitVec 64))) Bool (and (e207 c0 c1) (e214 c0 c1)))
(define-fun e216 ((c0 (_ BitVec 64)) (c1 (_ BitVec 64))) Bool (and (e172 c0 c1) (e176 c0 c1) (e102 c0 c1)))
(define-fun e217 ((c0 (_ BitVec 64)) (c1 (_ BitVec 64))) Bool (not (e216 c0 c1)))
(define-fun e218 ((c0 (_ BitVec 64)) (c1 (_ BitVec 64))) Bool (or (e215 c0 c1) (e217 c0 c1)))
(define-fun e219 () Bool (forall ((c0 (_ BitVec 64)) (c1 (_ BitVec 64))) (e218 c0 c1)))
(define-fun e220 ((c0 (_ BitVec 64)) (c1 (_ BitVec 64))) Bool (= (e68 c0 c1) (e203 c0 c1)))
(define-fun e221 ((c0 (_ BitVec 64)) (c1 (_ BitVec 64))) Bool (and (e202 c0 c1) (e220 c0 c1)))
(define-fun e222 ((c0 (_ BitVec 64)) (c1 (_ BitVec 64))) Bool (and (e207 c0 c1) (e221 c0 c1)))
(define-fun e223 ((c0 (_ BitVec 64)) (c1 (_ BitVec 64))) Bool (and (e172 c0 c1) (e102 c0 c1) (e197 c0 c1) (e117 c0 c1)))
(define-fun e224 ((c0 (_ BitVec 64)) (c1 (_ BitVec 64))) Bool (not (e223 c0 c1)))
(define-fun e225 ((c0 (_ BitVec 64)) (c1 (_ BitVec 64))) Bool (or (e222 c0 c1) (e224 c0 c1)))
(define-fun e226 () Bool (forall ((c0 (_ BitVec 64)) (c1 (_ BitVec 64))) (e225 c0 c1)))
(define-fun e227 ((c0 (_ BitVec 64)) (c1 (_ BitVec 64))) (_ BitVec 64) (_ bv256 64))
(define-fun e228 ((c0 (_ BitVec 64)) (c1 (_ BitVec 64))) Bool (bvult (e58 c0 c1) (e227 c0 c1)))
(define-fun e229 ((c0 (_ BitVec 64)) (c1 (_ BitVec 64))) Bool (not (e117 c0 c1)))
(define-fun e230 ((c0 (_ BitVec 64)) (c1 (_ BitVec 64))) Bool (and (e172 c0 c1) (e102 c0 c1) (e197 c0 c1) (e229 c0 c1)))
(define-fun e231 ((c0 (_ BitVec 64)) (c1 (_ BitVec 64))) Bool (not (e230 c0 c1)))
(define-fun e232 ((c0 (_ BitVec 64)) (c1 (_ BitVec 64))) Bool (or (e228 c0 c1) (e231 c0 c1)))
(define-fun e233 () Bool (forall ((c0 (_ BitVec 64)) (c1 (_ BitVec 64))) (e232 c0 c1)))
(define-fun e234 ((c0 (_ BitVec 64)) (c1 (_ BitVec 64))) Bool (not (e102 c0 c1)))
(define-fun e235 ((c0 (_ BitVec 64)) (c1 (_ BitVec 64))) Bool (= (e15 c0 c1) (e58 c0 c1)))
(define-fun e236 ((c0 (_ BitVec 64)) (c1 (_ BitVec 64))) Bool (and (e234 c0 c1) (e235 c0 c1)))
(define-fun e237 ((c0 (_ BitVec 64)) (c1 (_ BitVec 64))) Bool (not (e174 c0 c1)))
(define-fun e238 ((c0 (_ BitVec 64)) (c1 (_ BitVec 64))) Bool (not (e176 c0 c1)))
(define-fun e239 ((c0 (_ BitVec 64)) (c1 (_ BitVec 64))) Bool (not (e197 c0 c1)))
(define-fun e240 ((c0 (_ BitVec 64)) (c1 (_ BitVec 64))) Bool (and (e76 c0 c1) (e55 c0 c1) (e237 c0 c1) (e238 c0 c1) (e239 c0 c1)))
(define-fun e241 ((c0 (_ BitVec 64)) (c1 (_ BitVec 64))) Bool (not (e240 c0 c1)))
(define-fun e242 ((c0 (_ BitVec 64)) (c1 (_ BitVec 64))) Bool (or (e236 c0 c1) (e241 c0 c1)))
(define-fun e243 () Bool (forall ((c0 (_ BitVec 64)) (c1 (_ BitVec 64))) (e242 c0 c1)))
(define-fun e244 ((c0 (_ BitVec 64)) (c1 (_ BitVec 64))) Bool (= (e15 c0 c1) (e185 c0 c1)))
(define-fun e245 ((c0 (_ BitVec 64)) (c1 (_ BitVec 64))) Bool (and (e229 c0 c1) (e244 c0 c1)))
(define-fun e246 ((c0 (_ BitVec 64)) (c1 (_ BitVec 64))) Bool (and (e76 c0 c1) (e55 c0 c1) (e239 c0 c1)))
(define-fun e247 ((c0 (_ BitVec 64)) (c1 (_ BitVec 64))) Bool (not (e246 c0 c1)))
(define-fun e248 ((c0 (_ BitVec 64)) (c1 (_ BitVec 64))) Bool (or (e245 c0 c1) (e247 c0 c1)))
(define-fun e249 () Bool (forall ((c0 (_ BitVec 64)) (c1 (_ BitVec 64))) (e248 c0 c1)))
(define-fun e250 () Bool (and e134 e158 e181 e201 e212 e219 e226 e233 e243 e249))
(define-fun e252 ((c251 (_ BitVec 64))) (_ BitVec 64) (c24 c251))
(define-fun e253 ((c251 (_ BitVec 64))) (_ BitVec 64) (_ bv1024 64))
(define-fun e254 ((c251 (_ BitVec 64))) Bool (bvult (e252 c251) (e253 c251)))
(define-fun e255 ((c251 (_ BitVec 64))) (_ BitVec 64) (_ bv1 64))
(define-fun e256 ((c251 (_ BitVec 64))) (_ BitVec 64) (c11 (e252 c251)))
(define-fun e257 ((c251 (_ BitVec 64))) Bool (= (e255 c251) (e256 c251)))
(define-fun e258 ((c251 (_ BitVec 64))) Bool (and (e254 c251) (e257 c251)))
(define-fun e259 ((c251 (_ BitVec 64))) Bool (bvult c251 (e253 c251)))
(define-fun e260 ((c251 (_ BitVec 64))) (_ BitVec 64) (_ bv0 64))
(define-fun e261 ((c251 (_ BitVec 64))) (_ BitVec 64) (c11 c251))
(define-fun e262 ((c251 (_ BitVec 64))) Bool (= (e260 c251) (e261 c251)))
(define-fun e263 ((c251 (_ BitVec 64))) Bool (not (e262 c251)))
(define-fun e264 ((c251 (_ BitVec 64))) Bool (and (e259 c251) (e263 c251)))
(define-fun e265 ((c251 (_ BitVec 64))) Bool (not (e264 c251)))
(define-fun e266 ((c251 (_ BitVec 64))) Bool (or (e258 c251) (e265 c251)))
(define-fun e267 () Bool (forall ((c251 (_ BitVec 64))) (e266 c251)))
(define-fun e268 () Bool (and e250 e267))
(define-fun e269 () Bool (not e268))
(define-fun e270 () Bool (or e125 e269))
(define-fun e271 () Bool (not e270))
(assert e271)
(check-sat)
